 DBCSR| CPU Multiplication driver                                            SMM
 DBCSR| Multrec recursion limit                                              512
 DBCSR| Multiplication stack size                                          30000
 DBCSR| Maximum elements for images                                    UNLIMITED
 DBCSR| Multiplicative factor virtual images                                   1
 DBCSR| Use multiplication densification                                       F
 DBCSR| Multiplication size stacks                                             3
 DBCSR| Number of 3D layers                                               SINGLE
 DBCSR| Use MPI memory allocation                                              T
 DBCSR| Use RMA algorithm                                                      F
 DBCSR| Use Communication thread                                               T
 DBCSR| Communication thread load                                             87
 DBCSR| ACC: Number of devices/node                                            1
 DBCSR| ACC: Number of priority stack-buffers                                 40
 DBCSR| ACC: Number of posterior stack-buffers                                80
 DBCSR| ACC: Number of priority streams                                        4
 DBCSR| ACC: Number of posterior streams                                       4
 DBCSR| ACC: Avoid driver after busy                                           F
 DBCSR| ACC: Process inhomogeneous stacks                                      T
 DBCSR| ACC: Min. flop for processing                                          0
 DBCSR| ACC: Min. flop for sorting                                          4000
 DBCSR| ACC: Number of binning bins                                         4096
 DBCSR| ACC: Size of binning bins                                             16


  **** **** ******  **  PROGRAM STARTED AT               2021-05-31 23:00:29.653
 ***** ** ***  *** **   PROGRAM STARTED ON                              compute-node
 **    ****   ******    PROGRAM STARTED BY                               ramador
 ***** **    ** ** **   PROGRAM PROCESS ID                                 18338
  **** **  *******  **  PROGRAM STARTED IN  /scratch/snx3000/ramador/exercise_14

 CP2K| version string:                                          CP2K version 7.1
 CP2K| source code revision number:                                  git:e635599
 CP2K| cp2kflags: omp libint fftw3 libxc elpa parallel mpi3 scalapack acc smm_dn
 CP2K|            n smm dbcsr_acc max_contr=4
 CP2K| is freely available from                            https://www.cp2k.org/
 CP2K| Program compiled at                          Wed Mar 17 13:03:11 CET 2021
 CP2K| Program compiled on                                              daint101
 CP2K| Program compiled for                                CP2K-7.1-CrayGNU-cuda
 CP2K| Data directory path    /apps/daint/UES/jenkins/7.0.UP02-20.11/gpu/easybui
 CP2K| Input file name                                      gr2hno3_nvt_epot.inp

 GLOBAL| Force Environment number                                              1
 GLOBAL| Basis set file name                                           BASIS_SET
 GLOBAL| Potential file name                                           POTENTIAL
 GLOBAL| MM Potential file name                                     MM_POTENTIAL
 GLOBAL| Coordinate file name                               grly5x3_2hno3_cc.xyz
 GLOBAL| Method name                                                        CP2K
 GLOBAL| Project name                                           gr2hno3_nvt_epot
 GLOBAL| Preferred FFT library                                             FFTW3
 GLOBAL| Preferred diagonalization lib.                                     ELPA
 GLOBAL| Run type                                                             MD
 GLOBAL| All-to-all communication in single precision                          F
 GLOBAL| FFTs using library dependent lengths                                  F
 GLOBAL| Global print level                                                  LOW
 GLOBAL| MPI I/O enabled                                                       T
 GLOBAL| Total number of message passing processes                            12
 GLOBAL| Number of threads for this process                                    1
 GLOBAL| This output is from process                                           0
 GLOBAL| CPU model name                Intel(R) Xeon(R) CPU E5-2690 v3 @ 2.60GHz
 GLOBAL| CPUID                                                              1002

 MEMORY| system memory details [Kb]
 MEMORY|                        rank 0           min           max       average
 MEMORY| MemTotal             65842332      65842332      65842332      65842332
 MEMORY| MemFree              60308676      60308676      60308676      60308676
 MEMORY| Buffers                   860           860           860           860
 MEMORY| Cached                2597864       2597864       2597864       2597864
 MEMORY| Slab                   230108        229704        230108        229737
 MEMORY| SReclaimable            45724         45724         45724         45724
 MEMORY| MemLikelyFree        62953124      62953124      62953124      62953124



              #####   #####        # ######  ####### ####### ######   
             #     # #     #      #  #     # #          #    #     #  
             #     # #           #   #     # #          #    #     #  
             #     #  #####     #    #     # #####      #    ######   
             #   # #       #   #     #     # #          #    #     #  
             #    #  #     #  #      #     # #          #    #     #  
              #### #  #####  #       ######  #          #    ######   
                                                                      
                                    Version 0.2                       
                               J. Hutter and T. Heine                 
                                                                      


 EWALD| Summation is done by:                                               SPME
 EWALD| Alpha parameter [       ANGSTROM^-1]                              1.8897
 EWALD| Real Space Cutoff [          ANGSTROM]                            1.7854
 EWALD| G-space max. Miller index                         25        25        25
 EWALD| Spline interpolation order                                             5


 TOTAL NUMBERS AND MAXIMUM NUMBERS

  Total number of            - Atomic kinds:                                   4
                             - Atoms:                                         70
                             - Shell sets:                                     0
                             - Shells:                                       138
                             - Primitive Cartesian functions:                  0
                             - Cartesian basis functions:                    274
                             - Spherical basis functions:                    274

  Maximum angular momentum of the orbital basis functions:                     1

  LRI_AUX Basis: 
  Total number of            - Shell sets:                                     0
                             - Shells:                                       138
                             - Primitive Cartesian functions:                  0
                             - Cartesian basis functions:                    274
                             - Spherical basis functions:                    274
                               Maximum angular momentum                        1

  RI_HXC Basis: 
  Total number of            - Shell sets:                                     0
                             - Shells:                                       138
                             - Primitive Cartesian functions:                  0
                             - Cartesian basis functions:                    274
                             - Spherical basis functions:                    274
                               Maximum angular momentum                        1

  AUX_FIT ADMM-Basis: 
  Total number of            - Shell sets:                                     0
                             - Shells:                                       138
                             - Primitive Cartesian functions:                  0
                             - Cartesian basis functions:                    274
                             - Spherical basis functions:                    274
                               Maximum angular momentum                        1


 SCF PARAMETERS         Density guess:                                    ATOMIC
                        --------------------------------------------------------
                        max_scf:                                              30
                        max_scf_history:                                       0
                        max_diis:                                              4
                        --------------------------------------------------------
                        eps_scf:                                        1.00E-04
                        eps_scf_history:                                0.00E+00
                        eps_diis:                                       1.00E-01
                        eps_eigval:                                     1.00E-05
                        --------------------------------------------------------
                        level_shift [a.u.]:                                 0.00
                        --------------------------------------------------------
                        Outer loop SCF in use 
                        No variables optimised in outer loop
                        eps_scf                                         1.00E-04
                        max_scf                                                5
                        No outer loop optimization
                        step_size                                       5.00E-01

 MD| Molecular Dynamics Protocol 
 MD| Ensemble Type                                                           NVT
 MD| Number of Time Steps                                                  20000
 MD| Time Step [fs]                                                         1.00
 MD| Temperature [K]                                                      300.00
 MD| Temperature tolerance [K]                                            100.00
 MD| Constraints activated 
 MD| Tolerance for shake                                              0.1000E-05
 MD| Print MD information every                                      100 step(s)
 MD| File type     Print frequency[steps]                             File names
 MD| Coordinates          100                         gr2hno3_nvt_epot-pos-1.xyz
 MD| Velocities             1                         gr2hno3_nvt_epot-vel-1.xyz
 MD| Energies              10                            gr2hno3_nvt_epot-1.ener
 MD| Dump                1000                         gr2hno3_nvt_epot-1.restart


 *** WARNING in motion/simpar_methods.F:223 :: A temperature tolerance ***
 *** (TEMP_TOL) is used during the MD. Due to the velocity rescaling   ***
 *** algorithm jumps may appear in the conserved quantity.             ***

 ROT| Rotational Analysis Info 
 ROT| Principal axes and moments of inertia in atomic units:
 ROT|                                1                 2                 3
 ROT| EIGENVALUES            0.663458130E+08   0.774558553E+08   0.129154094E+09
 ROT|      X                     0.612783006       0.789888514      -0.023939983
 ROT|      Y                     0.790085329      -0.612993873      -0.001919666
 ROT|      Z                     0.016191385       0.017738291       0.999711554
 ROT| Number of Rotovibrational vectors:     6

 Calculation of degrees of freedom
                                                      Number of atoms:        70
                                 Number of Intramolecular constraints:        30
                                 Number of Intermolecular constraints:         0
                                  Invariants(translation + rotations):         3
                                                   Degrees of freedom:       177


 Restraints Information
                                  Number of Intramolecular restraints:         0
                                  Number of Intermolecular restraints:         0

 THERMOSTAT| Thermostat Info for PARTICLES
 THERMOSTAT| Type of thermostat                               Nose-Hoover-Chains
 THERMOSTAT| Nose-Hoover-Chain length                                          3
 THERMOSTAT| Nose-Hoover-Chain time constant [  fs]                       100.00
 THERMOSTAT| Order of Yoshida integrator                                       3
 THERMOSTAT| Number of multiple time steps                                     2
 THERMOSTAT| Initial Potential Energy                                   0.000000
 THERMOSTAT| Initial Kinetic Energy                                     0.000475
 THERMOSTAT| End of Thermostat Info for PARTICLES

 ************************** Velocities initialization **************************
 Initial Temperature                                                    300.00 K
 COM velocity:            0.000000000000      0.000000000000      0.000000000000
 *******************************************************************************


 Number of electrons:                                                        288
 Number of occupied orbitals:                                                144
 Number of molecular orbitals:                                               144

 Number of orbital functions:                                                274
 Number of independent orbital functions:                                    274

 Extrapolation method: initial_guess


 SCF WAVEFUNCTION OPTIMIZATION

  ----------------------------------- OT ---------------------------------------
  Minimizer      : DIIS                : direct inversion
                                         in the iterative subspace
                                         using   7 DIIS vectors
                                         safer DIIS on
  Preconditioner : FULL_SINGLE_INVERSE : inversion of 
                                         H + eS - 2*(Sc)(c^T*H*c+const)(Sc)^T
  Precond_solver : DEFAULT
  stepsize       :    0.08000000                  energy_gap     :    0.08000000
  eps_taylor     :   0.10000E-15                  max_taylor     :             4
  ----------------------------------- OT ---------------------------------------

  Step     Update method      Time    Convergence         Total energy    Change
  ------------------------------------------------------------------------------
     1 OT DIIS     0.80E-01    2.9     0.06572466       -97.8782277651 -9.79E+01
     2 OT DIIS     0.80E-01    0.1     0.05909459      -110.4085291833 -1.25E+01
     3 OT DIIS     0.80E-01    0.1     0.04667352      -119.5336019678 -9.13E+00
     4 OT DIIS     0.80E-01    0.1     0.02835370      -126.3693578205 -6.84E+00
     5 OT DIIS     0.80E-01    0.1     0.01833569      -127.7692889755 -1.40E+00
     6 OT DIIS     0.80E-01    0.1     0.01325706      -128.7857774990 -1.02E+00
     7 OT DIIS     0.80E-01    0.1     0.00906972      -129.1663509857 -3.81E-01
     8 OT DIIS     0.80E-01    0.1     0.00825606      -129.4845557376 -3.18E-01
     9 OT DIIS     0.80E-01    0.1     0.00782447      -129.6546426517 -1.70E-01
    10 OT SD       0.80E-01    0.1     0.00794420      -129.8035948374 -1.49E-01
    11 OT SD       0.80E-01    0.1     0.00813000      -130.0020946882 -1.98E-01
    12 OT SD       0.80E-01    0.1     0.00849697      -130.2130956783 -2.11E-01
    13 OT SD       0.80E-01    0.1     0.00894068      -130.4443438391 -2.31E-01
    14 OT SD       0.80E-01    0.1     0.00939699      -130.6996779745 -2.55E-01
    15 OT SD       0.80E-01    0.1     0.00982238      -130.9793634189 -2.80E-01
    16 OT SD       0.80E-01    0.1     0.01020853      -131.2806531148 -3.01E-01
    17 OT SD       0.80E-01    0.1     0.01059277      -131.5983028880 -3.18E-01
    18 OT SD       0.80E-01    0.1     0.01110458      -131.9262879956 -3.28E-01
    19 OT SD       0.80E-01    0.1     0.01195229      -132.2563187529 -3.30E-01
    20 OT SD       0.80E-01    0.1     0.01371266      -132.5797387275 -3.23E-01
    21 OT SD       0.80E-01    0.1     0.01661984      -132.8689900152 -2.89E-01
    22 OT SD       0.80E-01    0.1     0.02216518      -133.1124719404 -2.43E-01
    23 OT SD       0.80E-01    0.1     0.02611188      -133.1960098925 -8.35E-02
    24 OT SD       0.80E-01    0.1     0.03148204      -133.5075948599 -3.12E-01
    25 OT SD       0.80E-01    0.1     0.02880736      -133.4787695995  2.88E-02
    26 OT DIIS     0.80E-01    0.1     0.02584496      -134.5149392744 -1.04E+00
    27 OT DIIS     0.80E-01    0.1     0.02030161      -133.1533711813  1.36E+00
    28 OT DIIS     0.80E-01    0.1     0.02009249      -133.3210883936 -1.68E-01
    29 OT DIIS     0.80E-01    0.1     0.01082095      -133.6742691948 -3.53E-01
    30 OT SD       0.80E-01    0.1     0.01024834      -134.2999993106 -6.26E-01

  Leaving inner SCF loop after reaching    30 steps.


  Core Hamiltonian energy:                                   -121.83371050701794
  Repulsive potential energy:                                   5.42940398116516
  Electronic energy:                                          -18.49369905315014
  Dispersion energy:                                            0.59800626844734

  Total energy:                                              -134.29999931055559

  outer SCF iter =    1 RMS gradient =   0.10E-01 energy =       -134.2999993106

  ----------------------------------- OT ---------------------------------------
  Minimizer      : DIIS                : direct inversion
                                         in the iterative subspace
                                         using   7 DIIS vectors
                                         safer DIIS on
  Preconditioner : FULL_SINGLE_INVERSE : inversion of 
                                         H + eS - 2*(Sc)(c^T*H*c+const)(Sc)^T
  Precond_solver : DEFAULT
  stepsize       :    0.08000000                  energy_gap     :    0.08000000
  eps_taylor     :   0.10000E-15                  max_taylor     :             4
  ----------------------------------- OT ---------------------------------------

  Step     Update method      Time    Convergence         Total energy    Change
  ------------------------------------------------------------------------------
     1 OT DIIS     0.80E-01    0.2     0.01498558      -134.5916220314 -2.92E-01
     2 OT DIIS     0.80E-01    0.1     0.01354693      -135.2303379081 -6.39E-01
     3 OT DIIS     0.80E-01    0.1     0.01365854      -135.7215952633 -4.91E-01
     4 OT DIIS     0.80E-01    0.1     0.01346204      -135.9591517491 -2.38E-01
     5 OT DIIS     0.80E-01    0.1     0.01337705      -136.1798359177 -2.21E-01
     6 OT DIIS     0.80E-01    0.1     0.01338332      -136.4679740998 -2.88E-01
     7 OT DIIS     0.80E-01    0.1     0.01326507      -136.7941160477 -3.26E-01
     8 OT DIIS     0.80E-01    0.1     0.01316273      -136.9779737692 -1.84E-01
     9 OT DIIS     0.80E-01    0.1     0.01325329      -137.1966490062 -2.19E-01
    10 OT DIIS     0.80E-01    0.1     0.01326420      -137.2842995856 -8.77E-02
    11 OT DIIS     0.80E-01    0.1     0.01258490      -137.4334815211 -1.49E-01
    12 OT DIIS     0.80E-01    0.1     0.01460978      -137.4420194265 -8.54E-03
    13 OT DIIS     0.80E-01    0.1     0.01092803      -137.6592306541 -2.17E-01
    14 OT DIIS     0.80E-01    0.1     0.00865805      -137.8690331155 -2.10E-01
    15 OT DIIS     0.80E-01    0.1     0.00662713      -137.9254881123 -5.65E-02
    16 OT DIIS     0.80E-01    0.1     0.00596492      -137.9697755205 -4.43E-02
    17 OT DIIS     0.80E-01    0.1     0.00594967      -138.0555416833 -8.58E-02
    18 OT SD       0.80E-01    0.1     0.00599758      -138.1233081879 -6.78E-02
    19 OT SD       0.80E-01    0.1     0.00641593      -138.2378436635 -1.15E-01
    20 OT SD       0.80E-01    0.1     0.00740096      -138.3617167171 -1.24E-01
    21 OT SD       0.80E-01    0.1     0.01097537      -138.4754669615 -1.14E-01
    22 OT SD       0.80E-01    0.1     0.02239601      -138.4449710969  3.05E-02
    23 OT DIIS     0.80E-01    0.1     0.03756652      -137.7436672290  7.01E-01
    24 OT DIIS     0.80E-01    0.1     0.00593418      -137.9920928531 -2.48E-01
    25 OT DIIS     0.80E-01    0.1     0.00647041      -138.0007205566 -8.63E-03
    26 OT SD       0.80E-01    0.1     0.00671011      -138.0778800359 -7.72E-02
    27 OT SD       0.80E-01    0.1     0.00803482      -138.1943395775 -1.16E-01
    28 OT SD       0.80E-01    0.1     0.01282340      -138.2872979104 -9.30E-02
    29 OT DIIS     0.80E-01    0.1     0.02599583      -138.1884845316  9.88E-02
    30 OT SD       0.80E-01    0.1     0.00630657      -137.9821979014  2.06E-01

  Leaving inner SCF loop after reaching    30 steps.


  Core Hamiltonian energy:                                   -109.33266084310203
  Repulsive potential energy:                                   5.42940398116516
  Electronic energy:                                          -34.67694730786865
  Dispersion energy:                                            0.59800626844734

  Total energy:                                              -137.98219790135818

  outer SCF iter =    2 RMS gradient =   0.63E-02 energy =       -137.9821979014

  ----------------------------------- OT ---------------------------------------
  Minimizer      : DIIS                : direct inversion
                                         in the iterative subspace
                                         using   7 DIIS vectors
                                         safer DIIS on
  Preconditioner : FULL_SINGLE_INVERSE : inversion of 
                                         H + eS - 2*(Sc)(c^T*H*c+const)(Sc)^T
  Precond_solver : DEFAULT
  stepsize       :    0.08000000                  energy_gap     :    0.08000000
  eps_taylor     :   0.10000E-15                  max_taylor     :             4
  ----------------------------------- OT ---------------------------------------

  Step     Update method      Time    Convergence         Total energy    Change
  ------------------------------------------------------------------------------
     1 OT DIIS     0.80E-01    0.2     0.00864413      -138.0586808734 -7.65E-02
     2 OT DIIS     0.80E-01    0.1     0.01502115      -138.1122104377 -5.35E-02
     3 OT DIIS     0.80E-01    0.1     0.00680709      -138.2329805023 -1.21E-01
     4 OT SD       0.80E-01    0.1     0.00654046      -138.2743659880 -4.14E-02
     5 OT SD       0.80E-01    0.1     0.00681796      -138.4114392624 -1.37E-01
     6 OT SD       0.80E-01    0.1     0.00697513      -138.5554688422 -1.44E-01
     7 OT SD       0.80E-01    0.1     0.00774934      -138.6914694743 -1.36E-01
     8 OT SD       0.80E-01    0.1     0.01189850      -138.7857829756 -9.43E-02
     9 OT DIIS     0.80E-01    0.1     0.02460722      -138.6758649541  1.10E-01
    10 OT SD       0.80E-01    0.1     0.01004527      -138.6141124928  6.18E-02
    11 OT SD       0.80E-01    0.1     0.00739529      -138.8504433563 -2.36E-01
    12 OT DIIS     0.80E-01    0.1     0.00790816      -138.9913656765 -1.41E-01
    13 OT DIIS     0.80E-01    0.1     0.00616926      -139.0990179019 -1.08E-01
    14 OT DIIS     0.80E-01    0.1     0.00587263      -139.1311306707 -3.21E-02
    15 OT DIIS     0.80E-01    0.1     0.00512798      -139.1642262599 -3.31E-02
    16 OT DIIS     0.80E-01    0.1     0.00472128      -139.2359787757 -7.18E-02
    17 OT DIIS     0.80E-01    0.1     0.00529105      -139.3286553138 -9.27E-02
    18 OT DIIS     0.80E-01    0.1     0.00423584      -139.4170265857 -8.84E-02
    19 OT DIIS     0.80E-01    0.1     0.00470608      -139.4620273041 -4.50E-02
    20 OT SD       0.80E-01    0.1     0.00483008      -139.5372785011 -7.53E-02
    21 OT SD       0.80E-01    0.1     0.00588902      -139.5914503250 -5.42E-02
    22 OT DIIS     0.80E-01    0.1     0.01094027      -139.6092974832 -1.78E-02
    23 OT DIIS     0.80E-01    0.1     0.00431043      -139.5711163920  3.82E-02
    24 OT SD       0.80E-01    0.1     0.00424368      -139.5804037995 -9.29E-03
    25 OT SD       0.80E-01    0.1     0.00435369      -139.6364029285 -5.60E-02
    26 OT SD       0.80E-01    0.1     0.00498872      -139.6915774565 -5.52E-02
    27 OT SD       0.80E-01    0.1     0.00792154      -139.7360974874 -4.45E-02
    28 OT DIIS     0.80E-01    0.1     0.01795882      -139.6886674408  4.74E-02
    29 OT SD       0.80E-01    0.1     0.00437995      -139.6474690443  4.12E-02
    30 OT SD       0.80E-01    0.1     0.00456662      -139.7075690668 -6.01E-02

  Leaving inner SCF loop after reaching    30 steps.


  Core Hamiltonian energy:                                   -106.25030327515606
  Repulsive potential energy:                                   5.42940398116516
  Electronic energy:                                          -39.48467604120957
  Dispersion energy:                                            0.59800626844734

  Total energy:                                              -139.70756906675314

  outer SCF iter =    3 RMS gradient =   0.46E-02 energy =       -139.7075690668

  ----------------------------------- OT ---------------------------------------
  Minimizer      : DIIS                : direct inversion
                                         in the iterative subspace
                                         using   7 DIIS vectors
                                         safer DIIS on
  Preconditioner : FULL_SINGLE_INVERSE : inversion of 
                                         H + eS - 2*(Sc)(c^T*H*c+const)(Sc)^T
  Precond_solver : DEFAULT
  stepsize       :    0.08000000                  energy_gap     :    0.08000000
  eps_taylor     :   0.10000E-15                  max_taylor     :             4
  ----------------------------------- OT ---------------------------------------

  Step     Update method      Time    Convergence         Total energy    Change
  ------------------------------------------------------------------------------
     1 OT DIIS     0.80E-01    0.2     0.00544771      -139.7692496912 -6.17E-02
     2 OT DIIS     0.80E-01    0.1     0.00539994      -139.8537746151 -8.45E-02
     3 OT DIIS     0.80E-01    0.1     0.00548213      -139.8995020898 -4.57E-02
     4 OT SD       0.80E-01    0.1     0.00542271      -139.9059800062 -6.48E-03
     5 OT SD       0.80E-01    0.1     0.00604094      -139.9948754141 -8.89E-02
     6 OT SD       0.80E-01    0.1     0.00939571      -140.0673393069 -7.25E-02
     7 OT DIIS     0.80E-01    0.1     0.02259215      -139.9782511435  8.91E-02
     8 OT DIIS     0.80E-01    0.1     0.00643612      -139.7978805797  1.80E-01
     9 OT DIIS     0.80E-01    0.1     0.00749465      -139.8258015522 -2.79E-02
    10 OT DIIS     0.80E-01    0.1     0.00817744      -139.8810060519 -5.52E-02
    11 OT DIIS     0.80E-01    0.1     0.00723636      -140.0937630800 -2.13E-01
    12 OT SD       0.80E-01    0.1     0.00625623      -140.2193748621 -1.26E-01
    13 OT SD       0.80E-01    0.1     0.00649896      -140.3033256006 -8.40E-02
    14 OT DIIS     0.80E-01    0.1     0.01122302      -140.3369609524 -3.36E-02
    15 OT DIIS     0.80E-01    0.1     0.00790571      -140.2892998319  4.77E-02
    16 OT DIIS     0.80E-01    0.1     0.00756304      -140.3243591528 -3.51E-02
    17 OT DIIS     0.80E-01    0.1     0.00754044      -140.3253985011 -1.04E-03
    18 OT DIIS     0.80E-01    0.1     0.00448302      -140.4632399144 -1.38E-01
    19 OT DIIS     0.80E-01    0.1     0.00472769      -140.4572543639  5.99E-03
    20 OT DIIS     0.80E-01    0.1     0.00398943      -140.5138786886 -5.66E-02
    21 OT DIIS     0.80E-01    0.1     0.00406222      -140.5507039383 -3.68E-02
    22 OT SD       0.80E-01    0.1     0.00404924      -140.5678277326 -1.71E-02
    23 OT SD       0.80E-01    0.1     0.00480903      -140.6161045333 -4.83E-02
    24 OT SD       0.80E-01    0.1     0.00849153      -140.6529061939 -3.68E-02
    25 OT DIIS     0.80E-01    0.1     0.02170461      -140.5510959917  1.02E-01
    26 OT SD       0.80E-01    0.1     0.00391324      -140.4690964701  8.20E-02
    27 OT SD       0.80E-01    0.1     0.00436442      -140.5073492034 -3.83E-02
    28 OT SD       0.80E-01    0.1     0.00802974      -140.5291157927 -2.18E-02
    29 OT DIIS     0.80E-01    0.1     0.02112909      -140.4120031899  1.17E-01
    30 OT DIIS     0.80E-01    0.1     0.00627510      -140.2842587155  1.28E-01

  Leaving inner SCF loop after reaching    30 steps.


  Core Hamiltonian energy:                                   -103.54800375426797
  Repulsive potential energy:                                   5.42940398116516
  Electronic energy:                                          -42.76366521081943
  Dispersion energy:                                            0.59800626844734

  Total energy:                                              -140.28425871547489

  outer SCF iter =    4 RMS gradient =   0.63E-02 energy =       -140.2842587155

  ----------------------------------- OT ---------------------------------------
  Minimizer      : DIIS                : direct inversion
                                         in the iterative subspace
                                         using   7 DIIS vectors
                                         safer DIIS on
  Preconditioner : FULL_SINGLE_INVERSE : inversion of 
                                         H + eS - 2*(Sc)(c^T*H*c+const)(Sc)^T
  Precond_solver : DEFAULT
  stepsize       :    0.08000000                  energy_gap     :    0.08000000
  eps_taylor     :   0.10000E-15                  max_taylor     :             4
  ----------------------------------- OT ---------------------------------------

  Step     Update method      Time    Convergence         Total energy    Change
  ------------------------------------------------------------------------------
     1 OT DIIS     0.80E-01    0.2     0.00745222      -140.2964374634 -1.22E-02
     2 OT DIIS     0.80E-01    0.1     0.00469139      -140.3874442180 -9.10E-02
     3 OT DIIS     0.80E-01    0.1     0.00413129      -140.4259989308 -3.86E-02
     4 OT DIIS     0.80E-01    0.1     0.00381411      -140.4532040704 -2.72E-02
     5 OT DIIS     0.80E-01    0.1     0.00381996      -140.5449165089 -9.17E-02
     6 OT SD       0.80E-01    0.1     0.00382544      -140.5999283707 -5.50E-02
     7 OT SD       0.80E-01    0.1     0.00392482      -140.6461469348 -4.62E-02
     8 OT SD       0.80E-01    0.1     0.00413365      -140.6957131506 -4.96E-02
     9 OT SD       0.80E-01    0.1     0.00437595      -140.7505010756 -5.48E-02
    10 OT SD       0.80E-01    0.1     0.00462607      -140.8108708574 -6.04E-02
    11 OT SD       0.80E-01    0.1     0.00487796      -140.8758691726 -6.50E-02
    12 OT SD       0.80E-01    0.1     0.00518021      -140.9433084355 -6.74E-02
    13 OT SD       0.80E-01    0.1     0.00565461      -141.0102755679 -6.70E-02
    14 OT SD       0.80E-01    0.1     0.00651175      -141.0731690935 -6.29E-02
    15 OT SD       0.80E-01    0.1     0.00807027      -141.1265426178 -5.34E-02
    16 OT SD       0.80E-01    0.1     0.01073840      -141.1605381622 -3.40E-02
    17 OT DIIS     0.80E-01    0.1     0.01487151      -141.1550277779  5.51E-03
    18 OT SD       0.80E-01    0.1     0.00775314      -141.0248384758  1.30E-01
    19 OT SD       0.80E-01    0.1     0.00598878      -141.1336289732 -1.09E-01
    20 OT DIIS     0.80E-01    0.1     0.00586293      -141.2122682871 -7.86E-02
    21 OT SD       0.80E-01    0.1     0.00469517      -141.2085648503  3.70E-03
    22 OT SD       0.80E-01    0.1     0.00503886      -141.2674000934 -5.88E-02
    23 OT SD       0.80E-01    0.1     0.00582250      -141.3246157817 -5.72E-02
    24 OT SD       0.80E-01    0.1     0.00736873      -141.3778784533 -5.33E-02
    25 OT SD       0.80E-01    0.1     0.01023074      -141.4186693507 -4.08E-02
    26 OT SD       0.80E-01    0.1     0.01494034      -141.4197730181 -1.10E-03
    27 OT DIIS     0.80E-01    0.1     0.02177779      -141.3311144180  8.87E-02
    28 OT SD       0.80E-01    0.1     0.00519229      -141.2501796888  8.09E-02
    29 OT SD       0.80E-01    0.1     0.00596701      -141.3010088730 -5.08E-02
    30 OT SD       0.80E-01    0.1     0.00744475      -141.3467968976 -4.58E-02

  Leaving inner SCF loop after reaching    30 steps.


  Core Hamiltonian energy:                                   -102.66287224983421
  Repulsive potential energy:                                   5.42940398116516
  Electronic energy:                                          -44.71133489739414
  Dispersion energy:                                            0.59800626844734

  Total energy:                                              -141.34679689761583

  outer SCF iter =    5 RMS gradient =   0.74E-02 energy =       -141.3467968976

  ----------------------------------- OT ---------------------------------------
  Minimizer      : DIIS                : direct inversion
                                         in the iterative subspace
                                         using   7 DIIS vectors
                                         safer DIIS on
  Preconditioner : FULL_SINGLE_INVERSE : inversion of 
                                         H + eS - 2*(Sc)(c^T*H*c+const)(Sc)^T
  Precond_solver : DEFAULT
  stepsize       :    0.08000000                  energy_gap     :    0.08000000
  eps_taylor     :   0.10000E-15                  max_taylor     :             4
  ----------------------------------- OT ---------------------------------------

  Step     Update method      Time    Convergence         Total energy    Change
  ------------------------------------------------------------------------------
     1 OT DIIS     0.80E-01    0.2     0.00958615      -141.3825313780 -3.57E-02
     2 OT DIIS     0.80E-01    0.1     0.01232141      -141.5360784585 -1.54E-01
     3 OT DIIS     0.80E-01    0.1     0.00757914      -141.6384309723 -1.02E-01
     4 OT DIIS     0.80E-01    0.1     0.00666726      -141.7473412097 -1.09E-01
     5 OT DIIS     0.80E-01    0.1     0.00651223      -141.8671201206 -1.20E-01
     6 OT DIIS     0.80E-01    0.1     0.00565461      -142.0025566574 -1.35E-01
     7 OT DIIS     0.80E-01    0.1     0.00331570      -142.1740088492 -1.71E-01
     8 OT DIIS     0.80E-01    0.1     0.00474622      -142.1681589964  5.85E-03
     9 OT DIIS     0.80E-01    0.1     0.00193557      -142.2044070485 -3.62E-02
    10 OT DIIS     0.80E-01    0.1     0.00277521      -142.2007684478  3.64E-03
    11 OT DIIS     0.80E-01    0.1     0.00155164      -142.2154073086 -1.46E-02
    12 OT DIIS     0.80E-01    0.1     0.00101013      -142.2230849943 -7.68E-03
    13 OT DIIS     0.80E-01    0.1     0.00095281      -142.2248610960 -1.78E-03
    14 OT DIIS     0.80E-01    0.1     0.00077261      -142.2272029229 -2.34E-03
    15 OT DIIS     0.80E-01    0.1     0.00051577      -142.2284115754 -1.21E-03
    16 OT DIIS     0.80E-01    0.1     0.00044183      -142.2299762154 -1.56E-03
    17 OT DIIS     0.80E-01    0.1     0.00038022      -142.2305758851 -6.00E-04
    18 OT DIIS     0.80E-01    0.1     0.00040373      -142.2310391606 -4.63E-04
    19 OT DIIS     0.80E-01    0.1     0.00029385      -142.2312492172 -2.10E-04
    20 OT DIIS     0.80E-01    0.1     0.00023086      -142.2314133178 -1.64E-04
    21 OT DIIS     0.80E-01    0.1     0.00022574      -142.2315873102 -1.74E-04
    22 OT DIIS     0.80E-01    0.1     0.00019943      -142.2317355174 -1.48E-04
    23 OT DIIS     0.80E-01    0.1     0.00018387      -142.2318241934 -8.87E-05
    24 OT DIIS     0.80E-01    0.1     0.00016535      -142.2320356518 -2.11E-04
    25 OT DIIS     0.80E-01    0.1     0.00016011      -142.2321124702 -7.68E-05
    26 OT DIIS     0.80E-01    0.1     0.00016566      -142.2323202427 -2.08E-04
    27 OT DIIS     0.80E-01    0.1     0.00016030      -142.2324280498 -1.08E-04
    28 OT DIIS     0.80E-01    0.1     0.00014993      -142.2325474478 -1.19E-04
    29 OT DIIS     0.80E-01    0.1     0.00014663      -142.2328363698 -2.89E-04
    30 OT DIIS     0.80E-01    0.1     0.00013659      -142.2330534936 -2.17E-04

  Leaving inner SCF loop after reaching    30 steps.


  Core Hamiltonian energy:                                   -100.75220836815583
  Repulsive potential energy:                                   5.42940398116516
  Electronic energy:                                          -47.50825537507963
  Dispersion energy:                                            0.59800626844734

  Total energy:                                              -142.23305349362295

  outer SCF iter =    6 RMS gradient =   0.14E-03 energy =       -142.2330534936
  outer SCF loop FAILED to converge after    6 iterations or  180 steps


 *** WARNING in qs_scf.F:542 :: SCF run NOT converged ***


 ENERGY| Total FORCE_EVAL ( QS ) energy (a.u.):             -142.233137798805586


 MD_ENERGIES| Initialization proceeding


 ******************************** GO CP2K GO! **********************************
 INITIAL POTENTIAL ENERGY[hartree]     =                     -0.142233137799E+03
 INITIAL KINETIC ENERGY[hartree]       =                      0.840789473643E-01
 INITIAL TEMPERATURE[K]                =                                 300.000
 INITIAL VOLUME[bohr^3]                =                      0.212159541291E+05
 INITIAL CELL LNTHS[bohr]   =      0.2324363E+02   0.2415070E+02   0.3779452E+02
 INITIAL CELL ANGLS[deg]    =      0.9000000E+02   0.9000000E+02   0.9000000E+02
 ******************************** GO CP2K GO! **********************************

 Number of electrons:                                                        288
 Number of occupied orbitals:                                                144
 Number of molecular orbitals:                                               144

 Number of orbital functions:                                                274
 Number of independent orbital functions:                                    274

 Extrapolation method: ASPC


 SCF WAVEFUNCTION OPTIMIZATION

  ----------------------------------- OT ---------------------------------------
  Minimizer      : DIIS                : direct inversion
                                         in the iterative subspace
                                         using   7 DIIS vectors
                                         safer DIIS on
  Preconditioner : FULL_SINGLE_INVERSE : inversion of 
                                         H + eS - 2*(Sc)(c^T*H*c+const)(Sc)^T
  Precond_solver : DEFAULT
  stepsize       :    0.08000000                  energy_gap     :    0.08000000
  eps_taylor     :   0.10000E-15                  max_taylor     :             4
  ----------------------------------- OT ---------------------------------------

  Step     Update method      Time    Convergence         Total energy    Change
  ------------------------------------------------------------------------------
     1 OT DIIS     0.80E-01    0.1     0.00095051      -142.4154383439 -1.42E+02
     2 OT DIIS     0.80E-01    0.1     0.00061983      -142.4177634365 -2.33E-03
     3 OT DIIS     0.80E-01    0.1     0.00031933      -142.4196094912 -1.85E-03
     4 OT DIIS     0.80E-01    0.1     0.00026990      -142.4201900049 -5.81E-04
     5 OT DIIS     0.80E-01    0.1     0.00024815      -142.4206798939 -4.90E-04
     6 OT DIIS     0.80E-01    0.1     0.00022684      -142.4213357042 -6.56E-04
     7 OT DIIS     0.80E-01    0.1     0.00017858      -142.4224528248 -1.12E-03
     8 OT DIIS     0.80E-01    0.1     0.00009476      -142.4234471415 -9.94E-04

  *** SCF run converged in     8 steps ***


  Core Hamiltonian energy:                                   -100.41901940464918
  Repulsive potential energy:                                   5.45826894853717
  Electronic energy:                                          -48.06040514072976
  Dispersion energy:                                            0.59770845535854

  Total energy:                                              -142.42344714148322

  outer SCF iter =    1 RMS gradient =   0.95E-04 energy =       -142.4234471415
  outer SCF loop converged in   1 iterations or    8 steps


 ENERGY| Total FORCE_EVAL ( QS ) energy (a.u.):             -142.423448958655797


 Number of electrons:                                                        288
 Number of occupied orbitals:                                                144
 Number of molecular orbitals:                                               144

 Number of orbital functions:                                                274
 Number of independent orbital functions:                                    274

 Extrapolation method: ASPC


 SCF WAVEFUNCTION OPTIMIZATION

  ----------------------------------- OT ---------------------------------------
  Minimizer      : DIIS                : direct inversion
                                         in the iterative subspace
                                         using   7 DIIS vectors
                                         safer DIIS on
  Preconditioner : FULL_SINGLE_INVERSE : inversion of 
                                         H + eS - 2*(Sc)(c^T*H*c+const)(Sc)^T
  Precond_solver : DEFAULT
  stepsize       :    0.08000000                  energy_gap     :    0.08000000
  eps_taylor     :   0.10000E-15                  max_taylor     :             4
  ----------------------------------- OT ---------------------------------------

  Step     Update method      Time    Convergence         Total energy    Change
  ------------------------------------------------------------------------------
     1 OT DIIS     0.80E-01    0.1     0.00117233      -142.8500806093 -1.43E+02
     2 OT DIIS     0.80E-01    0.1     0.00076409      -142.8536052213 -3.52E-03
     3 OT DIIS     0.80E-01    0.1     0.00039874      -142.8563778019 -2.77E-03
     4 OT DIIS     0.80E-01    0.1     0.00023689      -142.8575045343 -1.13E-03
     5 OT DIIS     0.80E-01    0.1     0.00017698      -142.8578831859 -3.79E-04
     6 OT DIIS     0.80E-01    0.1     0.00011545      -142.8581799105 -2.97E-04
     7 OT DIIS     0.80E-01    0.1     0.00006249      -142.8583258457 -1.46E-04

  *** SCF run converged in     7 steps ***


  Core Hamiltonian energy:                                    -99.71028052107022
  Repulsive potential energy:                                   5.54691424837313
  Electronic energy:                                          -49.29227800509748
  Dispersion energy:                                            0.59731843205621

  Total energy:                                              -142.85832584573836

  outer SCF iter =    1 RMS gradient =   0.62E-04 energy =       -142.8583258457
  outer SCF loop converged in   1 iterations or    7 steps


 ENERGY| Total FORCE_EVAL ( QS ) energy (a.u.):             -142.858296219917861


 Number of electrons:                                                        288
 Number of occupied orbitals:                                                144
 Number of molecular orbitals:                                               144

 Number of orbital functions:                                                274
 Number of independent orbital functions:                                    274

 Extrapolation method: ASPC


 SCF WAVEFUNCTION OPTIMIZATION

  ----------------------------------- OT ---------------------------------------
  Minimizer      : DIIS                : direct inversion
                                         in the iterative subspace
  ... [further MD steps elided for the course excerpt] ...
  ...
