 DBCSR| CPU Multiplication driver                                            SMM
 DBCSR| Multrec recursion limit                                              512
 DBCSR| Multiplication stack size                                          30000
 DBCSR| Maximum elements for images                                    UNLIMITED
 DBCSR| Multiplicative factor virtual images                                   1
 DBCSR| Use multiplication densification                                       F
 DBCSR| Multiplication size stacks                                             3
 DBCSR| Number of 3D layers                                               SINGLE
 DBCSR| Use MPI memory allocation                                              T
 DBCSR| Use RMA algorithm                                                      F
 DBCSR| Use Communication thread                                               T
 DBCSR| Communication thread load                                             87
 DBCSR| ACC: Number of devices/node                                            1
 DBCSR| ACC: Number of priority stack-buffers                                 40
 DBCSR| ACC: Number of posterior stack-buffers                                80
 DBCSR| ACC: Number of priority streams                                        4
 DBCSR| ACC: Number of posterior streams                                       4
 DBCSR| ACC: Avoid driver after busy                                           F
 DBCSR| ACC: Process inhomogeneous stacks                                      T
 DBCSR| ACC: Min. flop for processing                                          0
 DBCSR| ACC: Min. flop for sorting                                          4000
 DBCSR| ACC: Number of binning bins                                         4096
 DBCSR| ACC: Size of binning bins                                             16


  **** **** ******  **  PROGRAM STARTED AT               2021-05-31 22:40:45.954
 ***** ** ***  *** **   PROGRAM STARTED ON                              compute-node
 **    ****   ******    PROGRAM STARTED BY                               ramador
 ***** **    ** ** **   PROGRAM PROCESS ID                                  8201
  **** **  *******  **  PROGRAM STARTED IN  /scratch/snx3000/ramador/exercise_14

 CP2K| version string:                                          CP2K version 7.1
 CP2K| source code revision number:                                  git:e635599
 CP2K| cp2kflags: omp libint fftw3 libxc elpa parallel mpi3 scalapack acc smm_dn
 CP2K|            n smm dbcsr_acc max_contr=4
 CP2K| is freely available from                            https://www.cp2k.org/
 CP2K| Program compiled at                          Wed Mar 17 13:03:11 CET 2021
 CP2K| Program compiled on                                              daint101
 CP2K| Program compiled for                                CP2K-7.1-CrayGNU-cuda
 CP2K| Data directory path    /apps/daint/UES/jenkins/7.0.UP02-20.11/gpu/easybui
 CP2K| Input file name                                           gr2hno3_nvt.inp

 GLOBAL| Force Environment number                                              1
 GLOBAL| Basis set file name                                           BASIS_SET
 GLOBAL| Potential file name                                           POTENTIAL
 GLOBAL| MM Potential file name                                     MM_POTENTIAL
 GLOBAL| Coordinate file name                                  grly5x3_2hno3.xyz
 GLOBAL| Method name                                                        CP2K
 GLOBAL| Project name                                                gr2hno3_nvt
 GLOBAL| Preferred FFT library                                             FFTW3
 GLOBAL| Preferred diagonalization lib.                                     ELPA
 GLOBAL| Run type                                                             MD
 GLOBAL| All-to-all communication in single precision                          F
 GLOBAL| FFTs using library dependent lengths                                  F
 GLOBAL| Global print level                                                  LOW
 GLOBAL| MPI I/O enabled                                                       T
 GLOBAL| Total number of message passing processes                            12
 GLOBAL| Number of threads for this process                                    1
 GLOBAL| This output is from process                                           0
 GLOBAL| CPU model name                Intel(R) Xeon(R) CPU E5-2690 v3 @ 2.60GHz
 GLOBAL| CPUID                                                              1002

 MEMORY| system memory details [Kb]
 MEMORY|                        rank 0           min           max       average
 MEMORY| MemTotal             65842332      65842332      65842332      65842332
 MEMORY| MemFree              60023184      60023184      60023484      60023459
 MEMORY| Buffers                  3212          3212          3212          3212
 MEMORY| Cached                2903188       2902792       2903188       2902825
 MEMORY| Slab                   242636        241908        242636        241968
 MEMORY| SReclaimable            57920         57784         57920         57795
 MEMORY| MemLikelyFree        62987504      62987272      62987504      62987291



              #####   #####        # ######  ####### ####### ######   
             #     # #     #      #  #     # #          #    #     #  
             #     # #           #   #     # #          #    #     #  
             #     #  #####     #    #     # #####      #    ######   
             #   # #       #   #     #     # #          #    #     #  
             #    #  #     #  #      #     # #          #    #     #  
              #### #  #####  #       ######  #          #    ######   
                                                                      
                                    Version 0.2                       
                               J. Hutter and T. Heine                 
                                                                      


 EWALD| Summation is done by:                                               SPME
 EWALD| Alpha parameter [       ANGSTROM^-1]                              1.8897
 EWALD| Real Space Cutoff [          ANGSTROM]                            1.7854
 EWALD| G-space max. Miller index                         25        25        25
 EWALD| Spline interpolation order                                             5


 TOTAL NUMBERS AND MAXIMUM NUMBERS

  Total number of            - Atomic kinds:                                   4
                             - Atoms:                                         70
                             - Shell sets:                                     0
                             - Shells:                                       138
                             - Primitive Cartesian functions:                  0
                             - Cartesian basis functions:                    274
                             - Spherical basis functions:                    274

  Maximum angular momentum of the orbital basis functions:                     1

  LRI_AUX Basis: 
  Total number of            - Shell sets:                                     0
                             - Shells:                                       138
                             - Primitive Cartesian functions:                  0
                             - Cartesian basis functions:                    274
                             - Spherical basis functions:                    274
                               Maximum angular momentum                        1

  RI_HXC Basis: 
  Total number of            - Shell sets:                                     0
                             - Shells:                                       138
                             - Primitive Cartesian functions:                  0
                             - Cartesian basis functions:                    274
                             - Spherical basis functions:                    274
                               Maximum angular momentum                        1

  AUX_FIT ADMM-Basis: 
  Total number of            - Shell sets:                                     0
                             - Shells:                                       138
                             - Primitive Cartesian functions:                  0
                             - Cartesian basis functions:                    274
                             - Spherical basis functions:                    274
                               Maximum angular momentum                        1


 SCF PARAMETERS         Density guess:                                    ATOMIC
                        --------------------------------------------------------
                        max_scf:                                              30
                        max_scf_history:                                       0
                        max_diis:                                              4
                        --------------------------------------------------------
                        eps_scf:                                        1.00E-04
                        eps_scf_history:                                0.00E+00
                        eps_diis:                                       1.00E-01
                        eps_eigval:                                     1.00E-05
                        --------------------------------------------------------
                        level_shift [a.u.]:                                 0.00
                        --------------------------------------------------------
                        Outer loop SCF in use 
                        No variables optimised in outer loop
                        eps_scf                                         1.00E-04
                        max_scf                                                5
                        No outer loop optimization
                        step_size                                       5.00E-01

 MD| Molecular Dynamics Protocol 
 MD| Ensemble Type                                                           NVT
 MD| Number of Time Steps                                                  20000
 MD| Time Step [fs]                                                         1.00
 MD| Temperature [K]                                                      300.00
 MD| Temperature tolerance [K]                                            100.00
 MD| Constraints activated 
 MD| Tolerance for shake                                              0.1000E-05
 MD| Print MD information every                                      100 step(s)
 MD| File type     Print frequency[steps]                             File names
 MD| Coordinates          100                              gr2hno3_nvt-pos-1.xyz
 MD| Velocities             1                              gr2hno3_nvt-vel-1.xyz
 MD| Energies              10                                 gr2hno3_nvt-1.ener
 MD| Dump                1000                              gr2hno3_nvt-1.restart


 *** WARNING in motion/simpar_methods.F:223 :: A temperature tolerance ***
 *** (TEMP_TOL) is used during the MD. Due to the velocity rescaling   ***
 *** algorithm jumps may appear in the conserved quantity.             ***

 ROT| Rotational Analysis Info 
 ROT| Principal axes and moments of inertia in atomic units:
 ROT|                                1                 2                 3
 ROT| EIGENVALUES            0.663458135E+08   0.774558559E+08   0.129154094E+09
 ROT|      X                     0.612783013       0.789888509      -0.023939980
 ROT|      Y                     0.790085323      -0.612993880      -0.001919664
 ROT|      Z                     0.016191382       0.017738289       0.999711555
 ROT| Number of Rotovibrational vectors:     6

 Calculation of degrees of freedom
                                                      Number of atoms:        70
                                 Number of Intramolecular constraints:        30
                                 Number of Intermolecular constraints:         0
                                  Invariants(translation + rotations):         3
                                                   Degrees of freedom:       177


 Restraints Information
                                  Number of Intramolecular restraints:         0
                                  Number of Intermolecular restraints:         0

 THERMOSTAT| Thermostat Info for PARTICLES
 THERMOSTAT| Type of thermostat                               Nose-Hoover-Chains
 THERMOSTAT| Nose-Hoover-Chain length                                          3
 THERMOSTAT| Nose-Hoover-Chain time constant [  fs]                       100.00
 THERMOSTAT| Order of Yoshida integrator                                       3
 THERMOSTAT| Number of multiple time steps                                     2
 THERMOSTAT| Initial Potential Energy                                   0.000000
 THERMOSTAT| Initial Kinetic Energy                                     0.000475
 THERMOSTAT| End of Thermostat Info for PARTICLES

 ************************** Velocities initialization **************************
 Initial Temperature                                                    300.00 K
 COM velocity:            0.000000000000      0.000000000000      0.000000000000
 *******************************************************************************


 Number of electrons:                                                        288
 Number of occupied orbitals:                                                144
 Number of molecular orbitals:                                               144

 Number of orbital functions:                                                274
 Number of independent orbital functions:                                    274

 Extrapolation method: initial_guess


 SCF WAVEFUNCTION OPTIMIZATION

  ----------------------------------- OT ---------------------------------------
  Minimizer      : DIIS                : direct inversion
                                         in the iterative subspace
                                         using   7 DIIS vectors
                                         safer DIIS on
  Preconditioner : FULL_SINGLE_INVERSE : inversion of 
                                         H + eS - 2*(Sc)(c^T*H*c+const)(Sc)^T
  Precond_solver : DEFAULT
  stepsize       :    0.08000000                  energy_gap     :    0.08000000
  eps_taylor     :   0.10000E-15                  max_taylor     :             4
  ----------------------------------- OT ---------------------------------------

  Step     Update method      Time    Convergence         Total energy    Change
  ------------------------------------------------------------------------------
     1 OT DIIS     0.80E-01    3.0     0.06572472       -97.8782180585 -9.79E+01
     2 OT DIIS     0.80E-01    0.1     0.05909596      -110.4087321544 -1.25E+01
     3 OT DIIS     0.80E-01    0.1     0.04667924      -119.5338835179 -9.13E+00
     4 OT DIIS     0.80E-01    0.1     0.02836730      -126.3705322614 -6.84E+00
     5 OT DIIS     0.80E-01    0.1     0.01835444      -127.7716274641 -1.40E+00
     6 OT DIIS     0.80E-01    0.1     0.01327545      -128.7892838057 -1.02E+00
     7 OT DIIS     0.80E-01    0.1     0.00907984      -129.1707327638 -3.81E-01
     8 OT DIIS     0.80E-01    0.1     0.00826654      -129.4894046676 -3.19E-01
     9 OT DIIS     0.80E-01    0.1     0.00783440      -129.6597613042 -1.70E-01
    10 OT SD       0.80E-01    0.1     0.00795298      -129.8086147368 -1.49E-01
    11 OT SD       0.80E-01    0.1     0.00814020      -130.0075572442 -1.99E-01
    12 OT SD       0.80E-01    0.1     0.00850916      -130.2190852336 -2.12E-01
    13 OT SD       0.80E-01    0.1     0.00895537      -130.4509827293 -2.32E-01
    14 OT SD       0.80E-01    0.1     0.00941461      -130.7071146294 -2.56E-01
    15 OT SD       0.80E-01    0.1     0.00984350      -130.9877503856 -2.81E-01
    16 OT SD       0.80E-01    0.1     0.01023448      -131.2901200320 -3.02E-01
    17 OT SD       0.80E-01    0.1     0.01062667      -131.6089131102 -3.19E-01
    18 OT SD       0.80E-01    0.1     0.01115504      -131.9379990996 -3.29E-01
    19 OT SD       0.80E-01    0.1     0.01203506      -132.2688225107 -3.31E-01
    20 OT SD       0.80E-01    0.1     0.01386585      -132.5923900056 -3.24E-01
    21 OT SD       0.80E-01    0.1     0.01686005      -132.8797546075 -2.87E-01
    22 OT SD       0.80E-01    0.1     0.02252938      -133.1202926675 -2.41E-01
    23 OT SD       0.80E-01    0.1     0.02634861      -133.1968169205 -7.65E-02
    24 OT DIIS     0.80E-01    0.1     0.03150088      -133.5280727643 -3.31E-01
    25 OT DIIS     0.80E-01    0.1     0.01506844      -132.2107864628  1.32E+00
    26 OT DIIS     0.80E-01    0.1     0.01760297      -132.3762434845 -1.65E-01
    27 OT DIIS     0.80E-01    0.1     0.01273423      -132.9074459270 -5.31E-01
    28 OT DIIS     0.80E-01    0.1     0.00987713      -133.4603922381 -5.53E-01
    29 OT SD       0.80E-01    0.1     0.01036453      -133.5423134581 -8.19E-02
    30 OT DIIS     0.80E-01    0.1     0.01143470      -133.8198938607 -2.78E-01

  Leaving inner SCF loop after reaching    30 steps.


  Core Hamiltonian energy:                                   -123.67032555935721
  Repulsive potential energy:                                   5.42940374304000
  Electronic energy:                                          -16.17697831161451
  Dispersion energy:                                            0.59800626726903

  Total energy:                                              -133.81989386066269

  outer SCF iter =    1 RMS gradient =   0.11E-01 energy =       -133.8198938607

  ----------------------------------- OT ---------------------------------------
  Minimizer      : DIIS                : direct inversion
                                         in the iterative subspace
                                         using   7 DIIS vectors
                                         safer DIIS on
  Preconditioner : FULL_SINGLE_INVERSE : inversion of 
                                         H + eS - 2*(Sc)(c^T*H*c+const)(Sc)^T
  Precond_solver : DEFAULT
  stepsize       :    0.08000000                  energy_gap     :    0.08000000
  eps_taylor     :   0.10000E-15                  max_taylor     :             4
  ----------------------------------- OT ---------------------------------------

  Step     Update method      Time    Convergence         Total energy    Change
  ------------------------------------------------------------------------------
     1 OT DIIS     0.80E-01    0.2     0.01465625      -133.9011158386 -8.12E-02
     2 OT DIIS     0.80E-01    0.1     0.01328546      -134.5062840900 -6.05E-01
     3 OT DIIS     0.80E-01    0.1     0.01347158      -134.9456393907 -4.39E-01
     4 OT DIIS     0.80E-01    0.1     0.01342535      -135.1327367012 -1.87E-01
     5 OT SD       0.80E-01    0.1     0.01343594      -135.1722698012 -3.95E-02
     6 OT SD       0.80E-01    0.1     0.01359549      -135.7435092583 -5.71E-01
     7 OT SD       0.80E-01    0.1     0.01365642      -136.3139488955 -5.70E-01
     8 OT SD       0.80E-01    0.1     0.01695654      -136.8062292549 -4.92E-01
     9 OT DIIS     0.80E-01    0.1     0.03763678      -136.7850808137  2.11E-02
    10 OT DIIS     0.80E-01    0.1     0.01695141      -136.4280909977  3.57E-01
    11 OT DIIS     0.80E-01    0.1     0.01735710      -137.2865805988 -8.58E-01
    12 OT DIIS     0.80E-01    0.1     0.01420277      -137.5760484920 -2.89E-01
    13 OT DIIS     0.80E-01    0.1     0.01193589      -138.0558338125 -4.80E-01
    14 OT SD       0.80E-01    0.1     0.01068207      -138.4384366542 -3.83E-01
    15 OT SD       0.80E-01    0.1     0.01639615      -138.6258806138 -1.87E-01
    16 OT DIIS     0.80E-01    0.1     0.04058505      -138.2235120087  4.02E-01
    17 OT DIIS     0.80E-01    0.1     0.01334385      -138.4009178091 -1.77E-01
    18 OT DIIS     0.80E-01    0.1     0.00901647      -138.8304365429 -4.30E-01
    19 OT DIIS     0.80E-01    0.1     0.00889616      -138.9725516006 -1.42E-01
    20 OT DIIS     0.80E-01    0.1     0.00867511      -139.0672183550 -9.47E-02
    21 OT DIIS     0.80E-01    0.1     0.00871207      -139.1270891879 -5.99E-02
    22 OT DIIS     0.80E-01    0.1     0.00846848      -139.2426924653 -1.16E-01
    23 OT SD       0.80E-01    0.1     0.00899081      -139.4441714489 -2.01E-01
    24 OT SD       0.80E-01    0.1     0.01217914      -139.6519329704 -2.08E-01
    25 OT DIIS     0.80E-01    0.1     0.02646964      -139.6916390008 -3.97E-02
    26 OT SD       0.80E-01    0.1     0.00876662      -139.4644249120  2.27E-01
    27 OT SD       0.80E-01    0.1     0.00945824      -139.7061218913 -2.42E-01
    28 OT SD       0.80E-01    0.1     0.01208772      -139.9605165682 -2.54E-01
    29 OT SD       0.80E-01    0.1     0.02423516      -140.1105244647 -1.50E-01
    30 OT DIIS     0.80E-01    0.1     0.05588742      -138.9785799452  1.13E+00

  Leaving inner SCF loop after reaching    30 steps.


  Core Hamiltonian energy:                                   -105.26080935116268
  Repulsive potential energy:                                   5.42940374304000
  Electronic energy:                                          -39.74518060434949
  Dispersion energy:                                            0.59800626726903

  Total energy:                                              -138.97857994520317

  outer SCF iter =    2 RMS gradient =   0.56E-01 energy =       -138.9785799452

  ----------------------------------- OT ---------------------------------------
  Minimizer      : DIIS                : direct inversion
                                         in the iterative subspace
                                         using   7 DIIS vectors
                                         safer DIIS on
  Preconditioner : FULL_SINGLE_INVERSE : inversion of 
                                         H + eS - 2*(Sc)(c^T*H*c+const)(Sc)^T
  Precond_solver : DEFAULT
  stepsize       :    0.08000000                  energy_gap     :    0.08000000
  eps_taylor     :   0.10000E-15                  max_taylor     :             4
  ----------------------------------- OT ---------------------------------------

  Step     Update method      Time    Convergence         Total energy    Change
  ------------------------------------------------------------------------------
     1 OT DIIS     0.80E-01    0.2     0.00970458      -139.5457122957 -5.67E-01
     2 OT DIIS     0.80E-01    0.1     0.01126756      -139.8118275251 -2.66E-01
     3 OT SD       0.80E-01    0.1     0.01022143      -139.9127536926 -1.01E-01
     4 OT SD       0.80E-01    0.1     0.01109123      -140.2527477925 -3.40E-01
     5 OT SD       0.80E-01    0.1     0.01194285      -140.6377327882 -3.85E-01
     6 OT SD       0.80E-01    0.1     0.01568406      -141.0058917755 -3.68E-01
     7 OT DIIS     0.80E-01    0.1     0.03531809      -140.9643697944  4.15E-02
     8 OT SD       0.80E-01    0.1     0.01655979      -140.5381654754  4.26E-01
     9 OT SD       0.80E-01    0.1     0.01515728      -141.1092975680 -5.71E-01
    10 OT SD       0.80E-01    0.1     0.02556899      -141.3254737450 -2.16E-01
    11 OT DIIS     0.80E-01    0.1     0.03951504      -140.3087314942  1.02E+00
    12 OT DIIS     0.80E-01    0.1     0.03119818      -141.4889117488 -1.18E+00
    13 OT DIIS     0.80E-01    0.1     0.01189143      -141.7481077965 -2.59E-01
    14 OT DIIS     0.80E-01    0.1     0.00938761      -142.1476990648 -4.00E-01
    15 OT DIIS     0.80E-01    0.1     0.00503117      -142.2163952420 -6.87E-02
    16 OT DIIS     0.80E-01    0.1     0.00268877      -142.2264419258 -1.00E-02
    17 OT DIIS     0.80E-01    0.1     0.00168702      -142.2305315156 -4.09E-03
    18 OT DIIS     0.80E-01    0.1     0.00152629      -142.2339001362 -3.37E-03
    19 OT DIIS     0.80E-01    0.1     0.00102354      -142.2363560828 -2.46E-03
    20 OT DIIS     0.80E-01    0.1     0.00128077      -142.2380188897 -1.66E-03
    21 OT DIIS     0.80E-01    0.1     0.00093392      -142.2404208121 -2.40E-03
    22 OT DIIS     0.80E-01    0.1     0.00085752      -142.2421935589 -1.77E-03
    23 OT DIIS     0.80E-01    0.1     0.00051958      -142.2439531542 -1.76E-03
    24 OT DIIS     0.80E-01    0.1     0.00050682      -142.2448231521 -8.70E-04
    25 OT DIIS     0.80E-01    0.1     0.00032585      -142.2456911465 -8.68E-04
    26 OT DIIS     0.80E-01    0.1     0.00029924      -142.2460014371 -3.10E-04
    27 OT DIIS     0.80E-01    0.1     0.00024576      -142.2462208970 -2.19E-04
    28 OT DIIS     0.80E-01    0.1     0.00022136      -142.2463115081 -9.06E-05
    29 OT DIIS     0.80E-01    0.1     0.00018598      -142.2463746835 -6.32E-05
    30 OT DIIS     0.80E-01    0.1     0.00016319      -142.2464178013 -4.31E-05

  Leaving inner SCF loop after reaching    30 steps.


  Core Hamiltonian energy:                                   -100.71814677328017
  Repulsive potential energy:                                   5.42940374304000
  Electronic energy:                                          -47.55568103831614
  Dispersion energy:                                            0.59800626726903

  Total energy:                                              -142.24641780128727

  outer SCF iter =    3 RMS gradient =   0.16E-03 energy =       -142.2464178013

  ----------------------------------- OT ---------------------------------------
  Minimizer      : DIIS                : direct inversion
                                         in the iterative subspace
                                         using   7 DIIS vectors
                                         safer DIIS on
  Preconditioner : FULL_SINGLE_INVERSE : inversion of 
                                         H + eS - 2*(Sc)(c^T*H*c+const)(Sc)^T
  Precond_solver : DEFAULT
  stepsize       :    0.08000000                  energy_gap     :    0.08000000
  eps_taylor     :   0.10000E-15                  max_taylor     :             4
  ----------------------------------- OT ---------------------------------------

  Step     Update method      Time    Convergence         Total energy    Change
  ------------------------------------------------------------------------------
     1 OT DIIS     0.80E-01    0.2     0.00010502      -142.2464488635 -3.11E-05
     2 OT DIIS     0.80E-01    0.1     0.00009428      -142.2464814122 -3.25E-05

  *** SCF run converged in     2 steps ***


  Core Hamiltonian energy:                                   -100.73299356429266
  Repulsive potential energy:                                   5.42940374304000
  Electronic energy:                                          -47.54089785823501
  Dispersion energy:                                            0.59800626726903

  Total energy:                                              -142.24648141221863

  outer SCF iter =    4 RMS gradient =   0.94E-04 energy =       -142.2464814122
  outer SCF loop converged in   4 iterations or   92 steps


 ENERGY| Total FORCE_EVAL ( QS ) energy (a.u.):             -142.246533543175843


 MD_ENERGIES| Initialization proceeding


 ******************************** GO CP2K GO! **********************************
 INITIAL POTENTIAL ENERGY[hartree]     =                     -0.142246533543E+03
 INITIAL KINETIC ENERGY[hartree]       =                      0.840789473643E-01
 INITIAL TEMPERATURE[K]                =                                 300.000
 INITIAL VOLUME[bohr^3]                =                      0.212159541291E+05
 INITIAL CELL LNTHS[bohr]   =      0.2324363E+02   0.2415070E+02   0.3779452E+02
 INITIAL CELL ANGLS[deg]    =      0.9000000E+02   0.9000000E+02   0.9000000E+02
 ******************************** GO CP2K GO! **********************************

 Number of electrons:                                                        288
 Number of occupied orbitals:                                                144
 Number of molecular orbitals:                                               144

 Number of orbital functions:                                                274
 Number of independent orbital functions:                                    274

 Extrapolation method: ASPC


 SCF WAVEFUNCTION OPTIMIZATION

  ----------------------------------- OT ---------------------------------------
  Minimizer      : DIIS                : direct inversion
                                         in the iterative subspace
                                         using   7 DIIS vectors
                                         safer DIIS on
  Preconditioner : FULL_SINGLE_INVERSE : inversion of 
                                         H + eS - 2*(Sc)(c^T*H*c+const)(Sc)^T
  Precond_solver : DEFAULT
  stepsize       :    0.08000000                  energy_gap     :    0.08000000
  eps_taylor     :   0.10000E-15                  max_taylor     :             4
  ----------------------------------- OT ---------------------------------------

  Step     Update method      Time    Convergence         Total energy    Change
  ------------------------------------------------------------------------------
     1 OT DIIS     0.80E-01    0.1     0.00094475      -142.4294341224 -1.42E+02
     2 OT DIIS     0.80E-01    0.1     0.00062257      -142.4317392064 -2.31E-03
     3 OT DIIS     0.80E-01    0.1     0.00033919      -142.4336356054 -1.90E-03
     4 OT DIIS     0.80E-01    0.1     0.00029613      -142.4343024256 -6.67E-04
     5 OT DIIS     0.80E-01    0.1     0.00027775      -142.4348852602 -5.83E-04
     6 OT DIIS     0.80E-01    0.1     0.00025787      -142.4357114629 -8.26E-04
     7 OT DIIS     0.80E-01    0.1     0.00020511      -142.4372269154 -1.52E-03
     8 OT DIIS     0.80E-01    0.1     0.00010392      -142.4386252179 -1.40E-03
     9 OT DIIS     0.80E-01    0.1     0.00007350      -142.4386239536  1.26E-06

  *** SCF run converged in     9 steps ***


  Core Hamiltonian energy:                                   -100.40741450538700
  Repulsive potential energy:                                   5.45816630016126
  Electronic energy:                                          -48.08708473614188
  Dispersion energy:                                            0.59770898775564

  Total energy:                                              -142.43862395361197

  outer SCF iter =    1 RMS gradient =   0.73E-04 energy =       -142.4386239536
  outer SCF loop converged in   1 iterations or    9 steps


 ENERGY| Total FORCE_EVAL ( QS ) energy (a.u.):             -142.438732194981611


 Number of electrons:                                                        288
 Number of occupied orbitals:                                                144
 Number of molecular orbitals:                                               144

 Number of orbital functions:                                                274
 Number of independent orbital functions:                                    274

 Extrapolation method: ASPC


 SCF WAVEFUNCTION OPTIMIZATION

  ----------------------------------- OT ---------------------------------------
  Minimizer      : DIIS                : direct inversion
                                         in the iterative subspace
                                         using   7 DIIS vectors
                                         safer DIIS on
  Preconditioner : FULL_SINGLE_INVERSE : inversion of 
                                         H + eS - 2*(Sc)(c^T*H*c+const)(Sc)^T
  Precond_solver : DEFAULT
  stepsize       :    0.08000000                  energy_gap     :    0.08000000
  eps_taylor     :   0.10000E-15                  max_taylor     :             4
  ----------------------------------- OT ---------------------------------------

  Step     Update method      Time    Convergence         Total energy    Change
  ------------------------------------------------------------------------------
     1 OT DIIS     0.80E-01    0.1     0.00122908      -142.8721206264 -1.43E+02
     2 OT DIIS     0.80E-01    0.1     0.00072831      -142.8758643387 -3.74E-03
     3 OT DIIS     0.80E-01    0.1     0.00029147      -142.8780659002 -2.20E-03
     4 OT DIIS     0.80E-01    0.1     0.00011458      -142.8785395191 -4.74E-04
     5 OT DIIS     0.80E-01    0.1     0.00006472      -142.8786070254 -6.75E-05

  *** SCF run converged in     5 steps ***


  Core Hamiltonian energy:                                    -99.69539867823600
  Repulsive potential energy:                                   5.54686792087011
  Electronic energy:                                          -49.32739540166919
  Dispersion energy:                                            0.59731913358692

  Total energy:                                              -142.87860702544816

  outer SCF iter =    1 RMS gradient =   0.65E-04 energy =       -142.8786070254
  outer SCF loop converged in   1 iterations or    5 steps


 ENERGY| Total FORCE_EVAL ( QS ) energy (a.u.):             -142.878629961526173


 Number of electrons:                                                        288
 Number of occupied orbitals:                                                144
 Number of molecular orbitals:                                               144

 Number of orbital functions:                                                274
 Number of independent orbital functions:                                    274

 Extrapolation method: ASPC


 SCF WAVEFUNCTION OPTIMIZATION

  ----------------------------------- OT ---------------------------------------
  Minimizer      : DIIS                : direct inversion
                                         in the iterative subspace
                                         using   7 DIIS vectors
                                         safer DIIS on
  Preconditioner : FULL_SINGLE_INVERSE : inversion of 
                                         H + eS - 2*(Sc)(c^T*H*c+const)(Sc)^T
  Precond_solver : DEFAULT
  stepsize       :    0.08000000                  energy_gap     :    0.08000000
  eps_taylor     :   0.10000E-15                  max_taylor     :             4
  ----------------------------------- OT ---------------------------------------

  Step     Update method      Time    Convergence         Total energy    Change
  ------------------------------------------------------------------------------
     1 OT DIIS     0.80E-01    0.1     0.00111599      -143.3441398491 -1.43E+02
     2 OT DIIS     0.80E-01    0.1     0.00072629      -143.3472790321 -3.14E-03
     3 OT DIIS     0.80E-01    0.1     0.00038441      -143.3493386540 -2.06E-03
     4 OT DIIS     0.80E-01    0.1     0.00016877      -143.3499159550 -5.77E-04
     5 OT DIIS     0.80E-01    0.1     0.00010294      -143.3500079982 -9.20E-05
     6 OT DIIS     0.80E-01    0.1     0.00006394      -143.3500476027 -3.96E-05

  *** SCF run converged in     6 steps ***


  Core Hamiltonian energy:                                    -98.74759318638607
  Repulsive potential energy:                                   5.66945021021952
  Electronic energy:                                          -50.86880988829981
  Dispersion energy:                                            0.59690526180958

  Total energy:                                              -143.35004760265679

  outer SCF iter =    1 RMS gradient =   0.64E-04 energy =       -143.3500476027
  outer SCF loop converged in   1 iterations or    6 steps


 ENERGY| Total FORCE_EVAL ( QS ) energy (a.u.):             -143.350064790371448


 Number of electrons:                                                        288
 Number of occupied orbitals:                                                144
 Number of molecular orbitals:                                               144

 Number of orbital functions:                                                274
 Number of independent orbital functions:                                    274

 Extrapolation method: ASPC


 SCF WAVEFUNCTION OPTIMIZATION

  ----------------------------------- OT ---------------------------------------
  Minimizer      : DIIS                : direct inversion
                                         in the iterative subspace
                                         using   7 DIIS vectors
                                         safer DIIS on
  Preconditioner : FULL_SINGLE_INVERSE : inversion of 
                                         H + eS - 2*(Sc)(c^T*H*c+const)(Sc)^T
  Precond_solver : DEFAULT
  stepsize       :    0.08000000                  energy_gap     :    0.08000000
  eps_taylor     :   0.10000E-15                  max_taylor     :             4
  ----------------------------------- OT ---------------------------------------

  Step     Update method      Time    Convergence         Total energy    Change
  ------------------------------------------------------------------------------
     1 OT DIIS     0.80E-01    0.1     0.00303192      -143.9123759876 -1.44E+02
     2 OT DIIS     0.80E-01    0.1     0.00257662      -143.9380988121 -2.57E-02
     3 OT DIIS     0.80E-01    0.1     0.00293473      -143.9584416493 -2.03E-02
     4 OT DIIS     0.80E-01    0.1     0.00233086      -143.9806773466 -2.22E-02
     5 OT DIIS     0.80E-01    0.1     0.00187031      -143.9899696531 -9.29E-03
     6 OT DIIS     0.80E-01    0.1     0.00186018      -144.0016072081 -1.16E-02
     7 OT DIIS     0.80E-01    0.1     0.00139927      -144.0174237769 -1.58E-02
     8 OT DIIS     0.80E-01    0.1     0.00095644      -144.0238773297 -6.45E-03
     9 OT DIIS     0.80E-01    0.1     0.00066134      -144.0254316272 -1.55E-03
    10 OT DIIS     0.80E-01    0.1     0.00047669      -144.0261425079 -7.11E-04
    11 OT DIIS     0.80E-01    0.1     0.00036793      -144.0264468888 -3.04E-04
    12 OT DIIS     0.80E-01    0.1     0.00031961      -144.0266202268 -1.73E-04
    13 OT DIIS     0.80E-01    0.1     0.00029881      -144.0267091422 -8.89E-05
    14 OT DIIS     0.80E-01    0.1     0.00018172      -144.0267719656 -6.28E-05
    15 OT DIIS     0.80E-01    0.1     0.00013153      -144.0267987824 -2.68E-05
    16 OT DIIS     0.80E-01    0.1     0.00009297      -144.0268239736 -2.52E-05

  *** SCF run converged in    16 steps ***


  Core Hamiltonian energy:                                    -94.00770185984945
  Repulsive potential energy:                                   5.82058100070214
  Electronic energy:                                          -56.43611190524012
  Dispersion energy:                                            0.59640879074748

  Total energy:                                              -144.02682397363995

  outer SCF iter =    1 RMS gradient =   0.93E-04 energy =       -144.0268239736
  outer SCF loop converged in   1 iterations or   16 steps


 ENERGY| Total FORCE_EVAL ( QS ) energy (a.u.):             -144.026841371125641


 Number of electrons:                                                        288
 Number of occupied orbitals:                                                144
 Number of molecular orbitals:                                               144

 Number of orbital functions:                                                274
 Number of independent orbital functions:                                    274

 Extrapolation method: ASPC


 SCF WAVEFUNCTION OPTIMIZATION

  ----------------------------------- OT ---------------------------------------
  Minimizer      : DIIS                : direct inversion
                                         in the iterative subspace
                                         using   7 DIIS vectors
                                         safer DIIS on
  Preconditioner : FULL_SINGLE_INVERSE : inversion of 
                                         H + eS - 2*(Sc)(c^T*H*c+const)(Sc)^T
  Precond_solver : DEFAULT
  stepsize       :    0.08000000                  energy_gap     :    0.08000000
  eps_taylor     :   0.10000E-15                  max_taylor     :             4
  ----------------------------------- OT ---------------------------------------

  Step     Update method      Time    Convergence         Total energy    Change
  ------------------------------------------------------------------------------
     1 OT DIIS     0.80E-01    0.1     0.00820152      -145.4654696140 -1.45E+02
     2 OT DIIS     0.80E-01    0.1     0.00462220      -145.6271876412 -1.62E-01
     3 OT DIIS     0.80E-01    0.1     0.00182222      -145.7080459909 -8.09E-02
     4 OT DIIS     0.80E-01    0.1     0.00070253      -145.7229262561 -1.49E-02
     5 OT DIIS     0.80E-01    0.1     0.00028830      -145.7250546613 -2.13E-03
     6 OT DIIS     0.80E-01    0.1     0.00010606      -145.7254092495 -3.55E-04
     7 OT DIIS     0.80E-01    0.1     0.00005317      -145.7254528950 -4.36E-05

  *** SCF run converged in     7 steps ***


  Core Hamiltonian energy:                                    -92.01477682698606
  Repulsive potential energy:                                   6.09102842148830
  Electronic energy:                                          -60.39714912557038
  Dispersion energy:                                            0.59544463604382

  Total energy:                                              -145.72545289502429

  outer SCF iter =    1 RMS gradient =   0.53E-04 energy =       -145.7254528950
  outer SCF loop converged in   1 iterations or    7 steps


 ENERGY| Total FORCE_EVAL ( QS ) energy (a.u.):             -145.725465772527684


  ... [further MD steps elided for the course excerpt] ...
 -------------------------------------------------------------------------------

 *** WARNING in dbcsr_mm.F:295 :: Using a non-square number of MPI ranks ***
 *** might lead to poor performance. Used ranks: 12 Suggested: 9 25      ***

 -------------------------------------------------------------------------------
 -                                                                             -
  ...
 reorthogonalize_vectors          20000  9.0    0.083    0.100   95.645   95.732
 make_basis_sm                    20004 10.0    0.237    0.245   95.586   95.674
 -------------------------------------------------------------------------------

 The number of warnings for this run is : 2
 
 -------------------------------------------------------------------------------
  **** **** ******  **  PROGRAM ENDED AT                 2021-05-31 23:58:40.302
 ***** ** ***  *** **   PROGRAM RAN ON                                  compute-node
 **    ****   ******    PROGRAM RAN BY                                   ramador
 ***** **    ** ** **   PROGRAM PROCESS ID                                  8201
  **** **  *******  **  PROGRAM STOPPED IN  /scratch/snx3000/ramador/exercise_14
